TCS_Benchmarks/redos_fix/regexlib1_output_distinct_1707_1706_104_0.txt
(.*)(.*)
(.*)((">)(.*)(<log4j:Message><!\[CDATA\[))(.*)